column=8;
row=8;
Board=[|1,0,0,3,0,0,0,0|0,0,8,6,0,0,0,1|0,0,0,0,1,0,2,3|0,0,0,0,0,0,0,5|0,1,0,0,3,7,0,0|6,3,5,0,0,0,8,7|0,2,0,7,0,0,0,0|0,0,3,0,0,8,1,0|];
horizontal=[|0,0,1,0,0,0,1|0,0,0,0,1,1,0|0,1,0,0,0,0,1|0,0,1,0,1,0,0|1,0,0,0,0,0,1|0,0,0,0,0,0,1|1,0,0,0,0,0,0|0,0,1,0,0,0,1|];
vertical=[|0,1,0,0,0,0,0,0|1,1,1,1,1,1,0,0|0,0,0,0,0,0,1,0|0,0,0,0,0,1,0,1|0,0,1,0,1,0,0,0|0,1,1,0,1,1,0,1|0,0,1,0,1,0,0,0|];
